731186
731186
731186
731186
731186
726635
726635
726635
714640
714593
704941
704941
704941
690412
690412
690412
690412
674646
674646
672325
669446
666222
651795
637928
637928
637928
637272
629568
629168
629168
629168
629168
627223
616829
616829
616829
616829
616735
616735
616735
615072
615072
615072
601866
601866
601866
601866
601866
601866
600978
600978
600978
596800
595781
595781
589195
589195
589195
581948
581948
581948
578088
578088
578088
577253
576215
576215
576215
576215
576215
576215
576215
570261
570261
570261
570261
570261
570261
565820
564545
564545
564545
556989
556989
556989
556989
556989
552857
552857
544025
544025
544025
544025
544025
544025
544025
544025
544025
544025
544025
